WARNING: for repeatability, setting FPU to use double precision
============================[ Problem Statistics ]=============================
|                                                                             |
|  Number of variables:            54                                         |
|  Number of clauses:             225                                         |
|  Parse time:                   0.00 s                                       |
|                                                                             |
============================[ Search Statistics ]==============================
| Conflicts |          ORIGINAL         |          LEARNT          | Progress |
|           |    Vars  Clauses Literals |    Limit  Clauses Lit/Cl |          |
===============================================================================
|       100 |      54      225      486 |       82      100     13 |  0.035 % |
|       250 |      54      225      486 |       90       99     12 |  0.035 % |
|       475 |      54      225      486 |       99      101     11 |  0.035 % |
|       812 |      54      225      486 |      109       87     10 |  0.035 % |
===============================================================================
restarts              : 8
conflicts             : 1206           (192744 /sec)
decisions             : 1563           (0.00 % random) (249800 /sec)
propagations          : 20849          (3332108 /sec)
conflict literals     : 13627          (10.99 % deleted)
Memory used           : 11.00 MB
CPU time              : 0.006257 s

UNSATISFIABLE
